
Gurobi 10.0.1 (linux64) logging started Tue May 23 02:52:20 2023

Set parameter LogFile to value "logFiles/N-1L-B/N-1L-13U-32F-23V-365D/basic-05-23-2023, 02-52-H80-P60-O10.log"
Gurobi Optimizer version 10.0.1 build v10.0.1rc0 (linux64)

CPU model: Intel(R) Xeon(R) Gold 5115 CPU @ 2.40GHz, instruction set [SSE2|AVX|AVX2|AVX512]
Thread count: 20 physical cores, 40 logical processors, using up to 20 threads

Optimize a model with 120829 rows, 1337322 columns and 8519563 nonzeros
Model fingerprint: 0xa42f522a
Variable types: 576384 continuous, 760938 integer (760938 binary)
Coefficient statistics:
  Matrix range     [1e+00, 2e+05]
  Objective range  [4e+01, 3e+07]
  Bounds range     [1e+00, 1e+00]
  RHS range        [1e+00, 2e+06]
Presolve removed 75609 rows and 0 columns
Presolve time: 0.34s

Explored 0 nodes (0 simplex iterations) in 0.74 seconds (0.22 work units)
Thread count was 1 (of 40 available processors)

Solution count 0

Model is infeasible or unbounded
Best objective -, best bound -, gap -
IIS computation: initial model status unknown, solving to determine model status
Presolve removed 75609 rows and 0 columns
Presolve time: 0.31s

Explored 0 nodes (0 simplex iterations) in 1.11 seconds (0.22 work units)
Thread count was 1 (of 40 available processors)

Solution count 0
No other solutions better than -1e+100

Model is infeasible
Best objective -, best bound -, gap -

IIS computed: 1 constraints, 0 bounds
IIS runtime: 1.21 seconds (0.22 work units)
